(set-logic ALL)
(declare-fun var0 () String)
(assert (str.in_re var0 (re.++ (re.* (re.union (str.to_re "0") (str.to_re "1"))) (re.++ (re.+ (re.union (str.to_re "222") (str.to_re "3"))) (re.++ (re.+ (re.* (str.to_re "4"))) (re.++ (re.* (re.+ (str.to_re "555"))) (re.++ (re.union (re.+ (str.to_re "66")) (re.+ (str.to_re "7"))) (re.++ (re.+ (re.union (str.to_re "8") (str.to_re "99"))) (re.++ (re.union (re.union (str.to_re "a") (str.to_re "bbb")) (re.union (str.to_re "cc") (str.to_re "dd"))) (re.++ (re.+ (re.union (str.to_re "e") (str.to_re "fff"))) (re.++ (re.* (re.* (str.to_re "gg"))) (re.++ (re.* (re.* (str.to_re "hh"))) (re.++ (re.+ (re.union (str.to_re "i") (str.to_re "j"))) (re.++ (re.union (re.+ (str.to_re "kk")) (re.+ (str.to_re "l"))) (re.++ (re.* (re.+ (str.to_re "mm"))) (re.++ (re.+ (re.* (str.to_re "nn"))) (re.++ (re.* (re.+ (str.to_re "ooo"))) (re.++ (re.* (re.* (str.to_re "ppp"))) (re.++ (re.union (re.+ (str.to_re "q")) (re.+ (str.to_re "r"))) (re.++ (re.union (re.* (str.to_re "ss")) (re.* (str.to_re "tt"))) (re.++ (re.* (re.union (str.to_re "uu") (str.to_re "vvv"))) (re.++ (re.+ (re.union (str.to_re "ww") (str.to_re "xxx"))) (re.++ (re.* (re.* (str.to_re "yy"))) (re.++ (re.union (re.union (str.to_re "zz") (str.to_re "AAA")) (re.union (str.to_re "BBB") (str.to_re "CCC"))) (re.++ (re.+ (re.union (str.to_re "DDD") (str.to_re "E"))) (re.++ (re.+ (re.+ (str.to_re "FF"))) (re.++ (re.union (re.union (str.to_re "GGG") (str.to_re "HHH")) (re.union (str.to_re "III") (str.to_re "JJJ"))) (re.++ (re.+ (re.* (str.to_re "KK"))) (re.++ (re.+ (re.union (str.to_re "LLL") (str.to_re "MMM"))) (re.++ (re.union (re.* (str.to_re "NN")) (re.* (str.to_re "OO"))) (re.++ (re.* (re.* (str.to_re "P"))) (re.++ (re.* (re.+ (str.to_re "Q"))) (re.++ (re.+ (re.union (str.to_re "R") (str.to_re "SSS"))) (re.++ (re.* (re.+ (str.to_re "T"))) (re.++ (re.+ (re.+ (str.to_re "UU"))) (re.++ (re.union (re.+ (str.to_re "V")) (re.+ (str.to_re "WWW"))) (re.++ (re.* (re.+ (str.to_re "XXX"))) (re.++ (re.* (re.+ (str.to_re "Y"))) (re.++ (re.union (re.union (str.to_re "Z") (str.to_re "!!!")) (re.union (str.to_re """""""") (str.to_re "##"))) (re.++ (re.+ (re.+ (str.to_re "$$"))) (re.++ (re.+ (re.* (str.to_re "%%%"))) (re.++ (re.union (re.+ (str.to_re "&")) (re.+ (str.to_re "''"))) (re.++ (re.* (re.+ (str.to_re "("))) (re.++ (re.* (re.* (str.to_re ")))"))) (re.++ (re.union (re.+ (str.to_re "***")) (re.+ (str.to_re "+++"))) (re.++ (re.+ (re.* (str.to_re ",,"))) (re.++ (re.+ (re.* (str.to_re "-"))) (re.++ (re.+ (re.+ (str.to_re "..."))) (re.++ (re.+ (re.* (str.to_re "/"))) (re.++ (re.union (re.union (str.to_re "::") (str.to_re ";;;")) (re.union (str.to_re "<<") (str.to_re "==="))) (re.++ (re.+ (re.+ (str.to_re ">>>"))) (re.++ (re.* (re.+ (str.to_re "?"))) (re.++ (re.union (re.* (str.to_re "@@@")) (re.* (str.to_re "[[["))) (re.++ (re.union (re.union (str.to_re "\\\\\\") (str.to_re "]]]")) (re.union (str.to_re "^^") (str.to_re "_"))) (re.++ (re.+ (re.union (str.to_re "``") (str.to_re "{{"))) (re.++ (re.+ (re.* (str.to_re "|||"))) (re.++ (re.union (re.+ (str.to_re "}}}")) (re.+ (str.to_re "~"))) (re.++ (re.union (re.union (str.to_re "0") (str.to_re "1")) (re.union (str.to_re "2") (str.to_re "3"))) (re.++ (re.union (re.* (str.to_re "4")) (re.* (str.to_re "5"))) (re.++ (re.union (re.union (str.to_re "6") (str.to_re "77")) (re.union (str.to_re "8") (str.to_re "9"))) (re.++ (re.union (re.+ (str.to_re "a")) (re.+ (str.to_re "b"))) (re.++ (re.union (re.+ (str.to_re "ccc")) (re.+ (str.to_re "d"))) (re.++ (re.* (re.+ (str.to_re "eee"))) (re.++ (re.+ (re.+ (str.to_re "f"))) (re.++ (re.+ (re.+ (str.to_re "ggg"))) (re.++ (re.* (re.* (str.to_re "h"))) (re.++ (re.* (re.union (str.to_re "i") (str.to_re "j"))) (re.++ (re.union (re.+ (str.to_re "kk")) (re.+ (str.to_re "lll"))) (re.++ (re.union (re.+ (str.to_re "mm")) (re.+ (str.to_re "nn"))) (re.++ (re.union (re.+ (str.to_re "oo")) (re.+ (str.to_re "pp"))) (re.++ (re.union (re.union (str.to_re "qq") (str.to_re "rr")) (re.union (str.to_re "sss") (str.to_re "tt"))) (re.++ (re.* (re.+ (str.to_re "uuu"))) (re.++ (re.* (re.union (str.to_re "vvv") (str.to_re "ww"))) (re.++ (re.* (re.union (str.to_re "x") (str.to_re "y"))) (re.++ (re.+ (re.union (str.to_re "z") (str.to_re "AAA"))) (re.++ (re.+ (re.+ (str.to_re "BBB"))) (re.++ (re.+ (re.* (str.to_re "CCC"))) (re.++ (re.union (re.union (str.to_re "DD") (str.to_re "E")) (re.union (str.to_re "FF") (str.to_re "GG"))) (re.++ (re.union (re.* (str.to_re "H")) (re.* (str.to_re "I"))) (re.++ (re.* (re.+ (str.to_re "JJ"))) (re.++ (re.+ (re.+ (str.to_re "K"))) (re.++ (re.+ (re.* (str.to_re "LL"))) (re.++ (re.union (re.+ (str.to_re "MM")) (re.+ (str.to_re "N"))) (re.++ (re.+ (re.+ (str.to_re "OOO"))) (re.++ (re.union (re.union (str.to_re "PP") (str.to_re "Q")) (re.union (str.to_re "RRR") (str.to_re "SS"))) (re.++ (re.+ (re.+ (str.to_re "TTT"))) (re.++ (re.+ (re.union (str.to_re "UUU") (str.to_re "VV"))) (re.++ (re.* (re.union (str.to_re "WWW") (str.to_re "X"))) (re.++ (re.+ (re.* (str.to_re "YYY"))) (re.++ (re.+ (re.* (str.to_re "ZZ"))) (re.++ (re.union (re.* (str.to_re "!")) (re.* (str.to_re """"""""))) (re.++ (re.+ (re.+ (str.to_re "##"))) (re.++ (re.union (re.union (str.to_re "$$$") (str.to_re "%")) (re.union (str.to_re "&") (str.to_re "'"))) (re.++ (re.+ (re.+ (str.to_re "("))) (re.++ (re.union (re.union (str.to_re "))") (str.to_re "*")) (re.union (str.to_re "+++") (str.to_re ",,"))) (re.++ (re.* (re.+ (str.to_re "---"))) (re.++ (re.union (re.+ (str.to_re ".")) (re.+ (str.to_re "//"))) (re.+ (re.+ (str.to_re "::"))))))))))))))))))))))))))))))))))))))))))))))))))))))))))))))))))))))))))))))))))))))))))))))))))))
(assert (not (str.in_re var0 (re.++ (re.* (re.+ (str.to_re "00"))) (re.++ (re.* (re.union (str.to_re "111") (str.to_re "2"))) (re.++ (re.union (re.* (str.to_re "33")) (re.* (str.to_re "44"))) (re.++ (re.union (re.union (str.to_re "555") (str.to_re "66")) (re.union (str.to_re "777") (str.to_re "88"))) (re.++ (re.union (re.union (str.to_re "999") (str.to_re "a")) (re.union (str.to_re "b") (str.to_re "c"))) (re.++ (re.+ (re.+ (str.to_re "d"))) (re.++ (re.union (re.+ (str.to_re "e")) (re.+ (str.to_re "ff"))) (re.++ (re.union (re.+ (str.to_re "gg")) (re.+ (str.to_re "hhh"))) (re.++ (re.* (re.* (str.to_re "i"))) (re.++ (re.union (re.* (str.to_re "j")) (re.* (str.to_re "kkk"))) (re.++ (re.* (re.union (str.to_re "lll") (str.to_re "mmm"))) (re.++ (re.union (re.+ (str.to_re "nn")) (re.+ (str.to_re "ooo"))) (re.++ (re.union (re.+ (str.to_re "p")) (re.+ (str.to_re "qq"))) (re.++ (re.union (re.* (str.to_re "rr")) (re.* (str.to_re "ss"))) (re.++ (re.* (re.* (str.to_re "ttt"))) (re.++ (re.+ (re.union (str.to_re "uu") (str.to_re "v"))) (re.++ (re.* (re.* (str.to_re "ww"))) (re.++ (re.+ (re.+ (str.to_re "xxx"))) (re.++ (re.+ (re.union (str.to_re "yyy") (str.to_re "zzz"))) (re.++ (re.+ (re.union (str.to_re "AA") (str.to_re "B"))) (re.++ (re.+ (re.+ (str.to_re "C"))) (re.++ (re.+ (re.+ (str.to_re "D"))) (re.++ (re.union (re.* (str.to_re "EE")) (re.* (str.to_re "F"))) (re.++ (re.+ (re.+ (str.to_re "G"))) (re.++ (re.+ (re.union (str.to_re "H") (str.to_re "I"))) (re.++ (re.+ (re.union (str.to_re "JJJ") (str.to_re "KK"))) (re.++ (re.* (re.* (str.to_re "LL"))) (re.++ (re.union (re.union (str.to_re "MM") (str.to_re "N")) (re.union (str.to_re "O") (str.to_re "PPP"))) (re.++ (re.* (re.* (str.to_re "Q"))) (re.++ (re.union (re.+ (str.to_re "RRR")) (re.+ (str.to_re "SSS"))) (re.++ (re.* (re.+ (str.to_re "TT"))) (re.++ (re.union (re.+ (str.to_re "U")) (re.+ (str.to_re "VVV"))) (re.++ (re.union (re.+ (str.to_re "WW")) (re.+ (str.to_re "XX"))) (re.++ (re.union (re.+ (str.to_re "Y")) (re.+ (str.to_re "ZZ"))) (re.++ (re.* (re.* (str.to_re "!!"))) (re.++ (re.union (re.+ (str.to_re """")) (re.+ (str.to_re "#"))) (re.++ (re.* (re.* (str.to_re "$$"))) (re.++ (re.union (re.+ (str.to_re "%%")) (re.+ (str.to_re "&&&"))) (re.++ (re.union (re.* (str.to_re "'''")) (re.* (str.to_re "(("))) (re.++ (re.+ (re.union (str.to_re ")") (str.to_re "***"))) (re.++ (re.* (re.* (str.to_re "+++"))) (re.++ (re.* (re.* (str.to_re ",,"))) (re.++ (re.+ (re.* (str.to_re "---"))) (re.++ (re.+ (re.* (str.to_re "."))) (re.++ (re.+ (re.union (str.to_re "//") (str.to_re ":::"))) (re.++ (re.+ (re.+ (str.to_re ";;;"))) (re.++ (re.union (re.+ (str.to_re "<<<")) (re.+ (str.to_re "="))) (re.++ (re.* (re.+ (str.to_re ">"))) (re.++ (re.union (re.union (str.to_re "?") (str.to_re "@")) (re.union (str.to_re "[[[") (str.to_re "\\\\\\"))) (re.++ (re.* (re.union (str.to_re "]]]") (str.to_re "^^"))) (re.++ (re.* (re.union (str.to_re "___") (str.to_re "``"))) (re.++ (re.+ (re.* (str.to_re "{{{"))) (re.++ (re.union (re.union (str.to_re "|||") (str.to_re "}}")) (re.union (str.to_re "~~") (str.to_re "000"))) (re.++ (re.* (re.* (str.to_re "11"))) (re.++ (re.union (re.+ (str.to_re "22")) (re.+ (str.to_re "333"))) (re.++ (re.union (re.union (str.to_re "44") (str.to_re "555")) (re.union (str.to_re "6") (str.to_re "77"))) (re.++ (re.* (re.* (str.to_re "888"))) (re.++ (re.* (re.union (str.to_re "999") (str.to_re "a"))) (re.++ (re.* (re.* (str.to_re "bbb"))) (re.++ (re.union (re.+ (str.to_re "ccc")) (re.+ (str.to_re "ddd"))) (re.++ (re.* (re.* (str.to_re "ee"))) (re.++ (re.* (re.* (str.to_re "ff"))) (re.++ (re.* (re.* (str.to_re "g"))) (re.++ (re.* (re.* (str.to_re "hh"))) (re.++ (re.* (re.union (str.to_re "iii") (str.to_re "jjj"))) (re.++ (re.* (re.union (str.to_re "kk") (str.to_re "ll"))) (re.++ (re.+ (re.+ (str.to_re "mmm"))) (re.++ (re.+ (re.union (str.to_re "n") (str.to_re "oo"))) (re.++ (re.+ (re.* (str.to_re "ppp"))) (re.++ (re.union (re.* (str.to_re "q")) (re.* (str.to_re "rrr"))) (re.++ (re.union (re.union (str.to_re "s") (str.to_re "tt")) (re.union (str.to_re "u") (str.to_re "vvv"))) (re.++ (re.union (re.union (str.to_re "www") (str.to_re "xx")) (re.union (str.to_re "yy") (str.to_re "zz"))) (re.++ (re.+ (re.union (str.to_re "A") (str.to_re "BB"))) (re.++ (re.* (re.* (str.to_re "CC"))) (re.++ (re.union (re.union (str.to_re "D") (str.to_re "EE")) (re.union (str.to_re "FFF") (str.to_re "G"))) (re.++ (re.* (re.+ (str.to_re "H"))) (re.++ (re.union (re.* (str.to_re "II")) (re.* (str.to_re "JJ"))) (re.++ (re.+ (re.union (str.to_re "K") (str.to_re "LL"))) (re.++ (re.+ (re.+ (str.to_re "M"))) (re.++ (re.* (re.+ (str.to_re "NN"))) (re.++ (re.+ (re.* (str.to_re "O"))) (re.++ (re.+ (re.union (str.to_re "PP") (str.to_re "Q"))) (re.++ (re.+ (re.+ (str.to_re "R"))) (re.++ (re.* (re.* (str.to_re "SSS"))) (re.++ (re.+ (re.* (str.to_re "TTT"))) (re.++ (re.union (re.* (str.to_re "UU")) (re.* (str.to_re "V"))) (re.++ (re.+ (re.union (str.to_re "W") (str.to_re "X"))) (re.++ (re.* (re.+ (str.to_re "YYY"))) (re.++ (re.* (re.+ (str.to_re "ZZZ"))) (re.++ (re.union (re.* (str.to_re "!")) (re.* (str.to_re """"""""))) (re.++ (re.+ (re.+ (str.to_re "#"))) (re.++ (re.union (re.* (str.to_re "$$")) (re.* (str.to_re "%%"))) (re.++ (re.+ (re.* (str.to_re "&&"))) (re.++ (re.* (re.* (str.to_re "'"))) (re.++ (re.+ (re.* (str.to_re "("))) (re.+ (re.+ (str.to_re ")")))))))))))))))))))))))))))))))))))))))))))))))))))))))))))))))))))))))))))))))))))))))))))))))))))))
(check-sat)